NAME 
OBJSENSE MAX
ROWS
 N  OBJ
 L  packing[0]
 L  packing[1]
 L  packing[2]
 L  packing[3]
 L  packing[4]
 L  packing[5]
 L  packing[6]
 L  packing[7]
 L  packing[8]
 L  packing[9]
 L  packing[10]
 L  packing[11]
 L  packing[12]
 L  packing[13]
 L  packing[14]
 L  packing[15]
 L  packing[16]
 L  packing[17]
 L  packing[18]
 L  packing[19]
 L  packing[20]
 L  packing[21]
 L  packing[22]
 L  packing[23]
 L  packing[24]
 L  packing[25]
 L  packing[26]
 L  packing[27]
 L  packing[28]
 L  packing[29]
 L  packing[30]
 L  packing[31]
 L  packing[32]
 L  packing[33]
 L  packing[34]
 L  packing[35]
 L  packing[36]
 L  packing[37]
 L  packing[38]
 L  packing[39]
 L  packing[40]
 L  packing[41]
 L  packing[42]
 L  packing[43]
 L  packing[44]
 L  packing[45]
 L  packing[46]
 L  packing[47]
 L  packing[48]
 L  packing[49]
 L  R57     
COLUMNS
    MARKER    'MARKER'                 'INTORG'
    x[1]      OBJ       129
    x[1]      packing[0]  44
    x[1]      packing[1]  100
    x[1]      packing[2]  166
    x[1]      packing[3]  82
    x[1]      packing[4]  197
    x[1]      packing[7]  156
    x[1]      packing[8]  76
    x[1]      packing[9]  134
    x[1]      packing[10]  121
    x[1]      packing[11]  170
    x[1]      packing[13]  140
    x[1]      packing[16]  144
    x[1]      packing[18]  194
    x[1]      packing[19]  6
    x[1]      packing[21]  88
    x[1]      packing[24]  164
    x[1]      packing[25]  80
    x[1]      packing[26]  74
    x[1]      packing[27]  169
    x[1]      packing[28]  116
    x[1]      packing[29]  34
    x[1]      packing[30]  51
    x[1]      packing[31]  157
    x[1]      packing[32]  114
    x[1]      packing[33]  70
    x[1]      packing[34]  131
    x[1]      packing[35]  56
    x[1]      packing[36]  186
    x[1]      packing[37]  87
    x[1]      packing[38]  103
    x[1]      packing[39]  138
    x[1]      packing[41]  178
    x[1]      packing[42]  38
    x[1]      packing[43]  69
    x[1]      packing[44]  4
    x[1]      packing[45]  5
    x[1]      packing[46]  99
    x[1]      packing[47]  107
    x[1]      packing[48]  103
    x[1]      packing[49]  137
    x[2]      OBJ       145
    x[2]      packing[0]  131
    x[2]      packing[1]  39
    x[2]      packing[2]  175
    x[2]      packing[3]  187
    x[2]      packing[4]  123
    x[2]      packing[5]  53
    x[2]      packing[6]  167
    x[2]      packing[7]  184
    x[2]      packing[9]  140
    x[2]      packing[10]  133
    x[2]      packing[11]  152
    x[2]      packing[12]  190
    x[2]      packing[13]  162
    x[2]      packing[14]  123
    x[2]      packing[15]  79
    x[2]      packing[16]  114
    x[2]      packing[17]  192
    x[2]      packing[19]  135
    x[2]      packing[21]  161
    x[2]      packing[25]  161
    x[2]      packing[27]  29
    x[2]      packing[28]  60
    x[2]      packing[29]  84
    x[2]      packing[30]  3
    x[2]      packing[31]  118
    x[2]      packing[34]  190
    x[2]      packing[36]  21
    x[2]      packing[38]  172
    x[2]      packing[39]  52
    x[2]      packing[40]  93
    x[2]      packing[41]  125
    x[2]      packing[42]  171
    x[2]      packing[43]  109
    x[2]      packing[44]  104
    x[2]      packing[46]  60
    x[2]      packing[48]  98
    x[2]      packing[49]  126
    x[3]      OBJ       32
    x[3]      packing[0]  136
    x[3]      packing[1]  88
    x[3]      packing[2]  165
    x[3]      packing[3]  15
    x[3]      packing[4]  96
    x[3]      packing[5]  180
    x[3]      packing[6]  6
    x[3]      packing[7]  163
    x[3]      packing[10]  43
    x[3]      packing[11]  72
    x[3]      packing[12]  55
    x[3]      packing[13]  181
    x[3]      packing[14]  154
    x[3]      packing[15]  121
    x[3]      packing[17]  189
    x[3]      packing[18]  182
    x[3]      packing[20]  93
    x[3]      packing[21]  81
    x[3]      packing[22]  172
    x[3]      packing[25]  111
    x[3]      packing[26]  76
    x[3]      packing[27]  9
    x[3]      packing[28]  93
    x[3]      packing[30]  67
    x[3]      packing[31]  118
    x[3]      packing[34]  125
    x[3]      packing[38]  113
    x[3]      packing[41]  164
    x[3]      packing[42]  188
    x[3]      packing[43]  102
    x[3]      packing[44]  50
    x[3]      packing[46]  161
    x[3]      packing[47]  109
    x[3]      packing[49]  1
    x[4]      OBJ       137
    x[4]      packing[0]  120
    x[4]      packing[1]  198
    x[4]      packing[2]  38
    x[4]      packing[3]  164
    x[4]      packing[4]  42
    x[4]      packing[5]  179
    x[4]      packing[8]  64
    x[4]      packing[9]  164
    x[4]      packing[10]  11
    x[4]      packing[12]  17
    x[4]      packing[14]  151
    x[4]      packing[15]  62
    x[4]      packing[17]  83
    x[4]      packing[18]  9
    x[4]      packing[20]  1
    x[4]      packing[21]  192
    x[4]      packing[22]  192
    x[4]      packing[23]  5
    x[4]      packing[24]  42
    x[4]      packing[26]  126
    x[4]      packing[27]  32
    x[4]      packing[28]  8
    x[4]      packing[30]  178
    x[4]      packing[31]  34
    x[4]      packing[32]  187
    x[4]      packing[33]  82
    x[4]      packing[35]  23
    x[4]      packing[36]  62
    x[4]      packing[37]  95
    x[4]      packing[38]  194
    x[4]      packing[39]  120
    x[4]      packing[40]  62
    x[4]      packing[41]  140
    x[4]      packing[42]  127
    x[4]      packing[43]  64
    x[4]      packing[44]  192
    x[4]      packing[45]  53
    x[4]      packing[46]  153
    x[4]      packing[47]  133
    x[4]      packing[48]  77
    x[4]      packing[49]  9
    x[4]      R57       1
    x[5]      OBJ       36
    x[5]      packing[0]  80
    x[5]      packing[3]  143
    x[5]      packing[4]  58
    x[5]      packing[5]  5
    x[5]      packing[9]  108
    x[5]      packing[10]  105
    x[5]      packing[12]  158
    x[5]      packing[14]  54
    x[5]      packing[16]  127
    x[5]      packing[17]  94
    x[5]      packing[18]  180
    x[5]      packing[21]  47
    x[5]      packing[23]  168
    x[5]      packing[24]  24
    x[5]      packing[25]  198
    x[5]      packing[27]  32
    x[5]      packing[28]  50
    x[5]      packing[29]  52
    x[5]      packing[30]  13
    x[5]      packing[31]  186
    x[5]      packing[33]  27
    x[5]      packing[34]  70
    x[5]      packing[37]  142
    x[5]      packing[38]  46
    x[5]      packing[40]  55
    x[5]      packing[41]  90
    x[5]      packing[42]  58
    x[5]      packing[43]  56
    x[5]      packing[44]  176
    x[5]      packing[46]  104
    x[5]      packing[49]  154
    x[6]      OBJ       149
    x[6]      packing[2]  54
    x[6]      packing[3]  87
    x[6]      packing[4]  103
    x[6]      packing[5]  76
    x[6]      packing[6]  141
    x[6]      packing[7]  101
    x[6]      packing[9]  114
    x[6]      packing[10]  162
    x[6]      packing[11]  190
    x[6]      packing[13]  77
    x[6]      packing[14]  36
    x[6]      packing[15]  124
    x[6]      packing[17]  115
    x[6]      packing[18]  111
    x[6]      packing[19]  114
    x[6]      packing[20]  35
    x[6]      packing[21]  188
    x[6]      packing[22]  33
    x[6]      packing[24]  108
    x[6]      packing[25]  131
    x[6]      packing[26]  1
    x[6]      packing[27]  197
    x[6]      packing[29]  127
    x[6]      packing[30]  132
    x[6]      packing[31]  45
    x[6]      packing[32]  45
    x[6]      packing[33]  104
    x[6]      packing[34]  144
    x[6]      packing[36]  156
    x[6]      packing[37]  2
    x[6]      packing[39]  199
    x[6]      packing[42]  43
    x[6]      packing[43]  193
    x[6]      packing[47]  39
    x[6]      packing[49]  22
    x[6]      R57       1
    x[7]      OBJ       107
    x[7]      packing[1]  47
    x[7]      packing[2]  147
    x[7]      packing[6]  60
    x[7]      packing[9]  45
    x[7]      packing[11]  9
    x[7]      packing[14]  144
    x[7]      packing[15]  96
    x[7]      packing[17]  80
    x[7]      packing[19]  164
    x[7]      packing[20]  38
    x[7]      packing[21]  132
    x[7]      packing[23]  90
    x[7]      packing[24]  182
    x[7]      packing[26]  34
    x[7]      packing[27]  195
    x[7]      packing[30]  17
    x[7]      packing[32]  2
    x[7]      packing[33]  145
    x[7]      packing[34]  47
    x[7]      packing[36]  81
    x[7]      packing[37]  113
    x[7]      packing[38]  128
    x[7]      packing[40]  196
    x[7]      packing[43]  30
    x[7]      packing[44]  2
    x[7]      packing[45]  46
    x[7]      packing[46]  41
    x[7]      packing[47]  66
    x[7]      packing[48]  54
    x[8]      OBJ       43
    x[8]      packing[0]  194
    x[8]      packing[1]  75
    x[8]      packing[2]  161
    x[8]      packing[3]  154
    x[8]      packing[4]  100
    x[8]      packing[5]  61
    x[8]      packing[6]  62
    x[8]      packing[7]  158
    x[8]      packing[10]  55
    x[8]      packing[11]  106
    x[8]      packing[12]  107
    x[8]      packing[15]  142
    x[8]      packing[16]  17
    x[8]      packing[17]  150
    x[8]      packing[18]  134
    x[8]      packing[19]  125
    x[8]      packing[20]  9
    x[8]      packing[22]  196
    x[8]      packing[23]  134
    x[8]      packing[24]  56
    x[8]      packing[26]  6
    x[8]      packing[28]  1
    x[8]      packing[30]  45
    x[8]      packing[32]  57
    x[8]      packing[33]  2
    x[8]      packing[34]  83
    x[8]      packing[36]  108
    x[8]      packing[37]  53
    x[8]      packing[38]  182
    x[8]      packing[39]  74
    x[8]      packing[40]  192
    x[8]      packing[41]  91
    x[8]      packing[42]  39
    x[8]      packing[43]  10
    x[8]      packing[44]  76
    x[8]      packing[45]  48
    x[8]      packing[46]  80
    x[8]      packing[47]  175
    x[8]      packing[48]  189
    x[9]      OBJ       78
    x[9]      packing[0]  157
    x[9]      packing[1]  51
    x[9]      packing[4]  91
    x[9]      packing[5]  172
    x[9]      packing[6]  149
    x[9]      packing[7]  140
    x[9]      packing[8]  7
    x[9]      packing[9]  93
    x[9]      packing[10]  8
    x[9]      packing[13]  52
    x[9]      packing[14]  146
    x[9]      packing[15]  185
    x[9]      packing[16]  134
    x[9]      packing[17]  163
    x[9]      packing[18]  104
    x[9]      packing[20]  199
    x[9]      packing[21]  5
    x[9]      packing[23]  193
    x[9]      packing[24]  91
    x[9]      packing[25]  7
    x[9]      packing[28]  131
    x[9]      packing[29]  6
    x[9]      packing[31]  143
    x[9]      packing[35]  158
    x[9]      packing[36]  65
    x[9]      packing[37]  61
    x[9]      packing[38]  75
    x[9]      packing[41]  40
    x[9]      packing[42]  23
    x[9]      packing[43]  159
    x[9]      packing[46]  65
    x[9]      packing[47]  51
    x[9]      packing[49]  42
    x[10]     OBJ       130
    x[10]     packing[2]  140
    x[10]     packing[3]  88
    x[10]     packing[4]  101
    x[10]     packing[5]  181
    x[10]     packing[6]  181
    x[10]     packing[8]  10
    x[10]     packing[9]  55
    x[10]     packing[11]  170
    x[10]     packing[12]  144
    x[10]     packing[13]  109
    x[10]     packing[14]  44
    x[10]     packing[15]  33
    x[10]     packing[16]  37
    x[10]     packing[23]  108
    x[10]     packing[24]  68
    x[10]     packing[25]  180
    x[10]     packing[26]  93
    x[10]     packing[28]  14
    x[10]     packing[29]  1
    x[10]     packing[30]  134
    x[10]     packing[31]  27
    x[10]     packing[33]  103
    x[10]     packing[34]  53
    x[10]     packing[35]  176
    x[10]     packing[37]  195
    x[10]     packing[38]  155
    x[10]     packing[39]  166
    x[10]     packing[40]  106
    x[10]     packing[41]  56
    x[10]     packing[42]  18
    x[10]     packing[43]  61
    x[10]     packing[44]  108
    x[10]     packing[46]  36
    x[10]     packing[47]  145
    x[10]     packing[48]  99
    x[10]     R57       1
    x[11]     OBJ       78
    x[11]     packing[0]  178
    x[11]     packing[1]  14
    x[11]     packing[2]  20
    x[11]     packing[3]  140
    x[11]     packing[4]  134
    x[11]     packing[5]  70
    x[11]     packing[7]  53
    x[11]     packing[9]  91
    x[11]     packing[10]  189
    x[11]     packing[11]  124
    x[11]     packing[12]  173
    x[11]     packing[13]  7
    x[11]     packing[16]  124
    x[11]     packing[18]  87
    x[11]     packing[19]  14
    x[11]     packing[20]  128
    x[11]     packing[21]  162
    x[11]     packing[23]  84
    x[11]     packing[24]  64
    x[11]     packing[26]  121
    x[11]     packing[27]  106
    x[11]     packing[28]  42
    x[11]     packing[29]  29
    x[11]     packing[31]  11
    x[11]     packing[32]  199
    x[11]     packing[34]  82
    x[11]     packing[35]  57
    x[11]     packing[36]  91
    x[11]     packing[38]  126
    x[11]     packing[39]  125
    x[11]     packing[40]  173
    x[11]     packing[41]  100
    x[11]     packing[43]  186
    x[11]     packing[44]  145
    x[11]     packing[46]  180
    x[11]     packing[48]  156
    x[11]     packing[49]  116
    x[12]     OBJ       49
    x[12]     packing[0]  37
    x[12]     packing[1]  65
    x[12]     packing[3]  10
    x[12]     packing[4]  29
    x[12]     packing[5]  46
    x[12]     packing[6]  187
    x[12]     packing[7]  46
    x[12]     packing[8]  27
    x[12]     packing[10]  192
    x[12]     packing[11]  129
    x[12]     packing[12]  176
    x[12]     packing[14]  80
    x[12]     packing[15]  167
    x[12]     packing[16]  128
    x[12]     packing[17]  108
    x[12]     packing[18]  41
    x[12]     packing[19]  57
    x[12]     packing[20]  90
    x[12]     packing[21]  27
    x[12]     packing[22]  165
    x[12]     packing[24]  193
    x[12]     packing[25]  144
    x[12]     packing[26]  82
    x[12]     packing[27]  46
    x[12]     packing[30]  12
    x[12]     packing[31]  24
    x[12]     packing[32]  86
    x[12]     packing[33]  76
    x[12]     packing[34]  28
    x[12]     packing[35]  81
    x[12]     packing[37]  106
    x[12]     packing[38]  146
    x[12]     packing[40]  106
    x[12]     packing[41]  78
    x[12]     packing[42]  41
    x[12]     packing[43]  60
    x[12]     packing[44]  91
    x[12]     packing[45]  51
    x[12]     packing[46]  124
    x[12]     packing[47]  117
    x[13]     OBJ       131
    x[13]     packing[0]  57
    x[13]     packing[1]  51
    x[13]     packing[2]  98
    x[13]     packing[4]  107
    x[13]     packing[5]  10
    x[13]     packing[7]  170
    x[13]     packing[9]  78
    x[13]     packing[12]  13
    x[13]     packing[14]  88
    x[13]     packing[17]  122
    x[13]     packing[18]  50
    x[13]     packing[19]  148
    x[13]     packing[20]  43
    x[13]     packing[24]  80
    x[13]     packing[25]  56
    x[13]     packing[26]  77
    x[13]     packing[27]  61
    x[13]     packing[28]  122
    x[13]     packing[30]  178
    x[13]     packing[31]  54
    x[13]     packing[33]  23
    x[13]     packing[34]  126
    x[13]     packing[35]  14
    x[13]     packing[36]  125
    x[13]     packing[37]  6
    x[13]     packing[38]  171
    x[13]     packing[39]  65
    x[13]     packing[40]  31
    x[13]     packing[42]  103
    x[13]     packing[43]  190
    x[13]     packing[44]  52
    x[13]     packing[46]  154
    x[13]     packing[47]  189
    x[13]     packing[48]  183
    x[13]     packing[49]  156
    x[13]     R57       1
    x[14]     OBJ       124
    x[14]     packing[0]  101
    x[14]     packing[1]  118
    x[14]     packing[2]  184
    x[14]     packing[3]  124
    x[14]     packing[4]  87
    x[14]     packing[6]  171
    x[14]     packing[7]  78
    x[14]     packing[9]  149
    x[14]     packing[10]  42
    x[14]     packing[11]  45
    x[14]     packing[12]  171
    x[14]     packing[13]  26
    x[14]     packing[15]  122
    x[14]     packing[16]  190
    x[14]     packing[18]  86
    x[14]     packing[19]  60
    x[14]     packing[20]  144
    x[14]     packing[21]  18
    x[14]     packing[22]  75
    x[14]     packing[24]  137
    x[14]     packing[25]  127
    x[14]     packing[26]  189
    x[14]     packing[28]  2
    x[14]     packing[29]  91
    x[14]     packing[31]  52
    x[14]     packing[32]  58
    x[14]     packing[35]  75
    x[14]     packing[36]  138
    x[14]     packing[38]  129
    x[14]     packing[39]  79
    x[14]     packing[40]  88
    x[14]     packing[41]  151
    x[14]     packing[42]  110
    x[14]     packing[43]  93
    x[14]     packing[44]  16
    x[14]     packing[47]  167
    x[14]     packing[48]  23
    x[14]     packing[49]  196
    x[15]     OBJ       19
    x[15]     packing[0]  63
    x[15]     packing[2]  14
    x[15]     packing[3]  5
    x[15]     packing[4]  32
    x[15]     packing[5]  180
    x[15]     packing[6]  127
    x[15]     packing[7]  102
    x[15]     packing[8]  44
    x[15]     packing[10]  76
    x[15]     packing[11]  40
    x[15]     packing[12]  94
    x[15]     packing[13]  23
    x[15]     packing[14]  158
    x[15]     packing[15]  178
    x[15]     packing[16]  55
    x[15]     packing[18]  150
    x[15]     packing[19]  159
    x[15]     packing[20]  58
    x[15]     packing[21]  124
    x[15]     packing[24]  12
    x[15]     packing[25]  72
    x[15]     packing[27]  141
    x[15]     packing[29]  12
    x[15]     packing[30]  112
    x[15]     packing[32]  100
    x[15]     packing[33]  196
    x[15]     packing[34]  13
    x[15]     packing[35]  56
    x[15]     packing[38]  199
    x[15]     packing[41]  55
    x[15]     packing[42]  182
    x[15]     packing[43]  114
    x[15]     packing[44]  108
    x[15]     packing[45]  139
    x[15]     packing[46]  1
    x[15]     packing[47]  188
    x[15]     packing[48]  103
    x[15]     packing[49]  164
    x[16]     OBJ       97
    x[16]     packing[1]  79
    x[16]     packing[2]  136
    x[16]     packing[3]  150
    x[16]     packing[5]  59
    x[16]     packing[6]  10
    x[16]     packing[8]  33
    x[16]     packing[9]  50
    x[16]     packing[10]  189
    x[16]     packing[14]  132
    x[16]     packing[15]  93
    x[16]     packing[18]  37
    x[16]     packing[20]  99
    x[16]     packing[21]  131
    x[16]     packing[24]  72
    x[16]     packing[25]  3
    x[16]     packing[26]  59
    x[16]     packing[28]  186
    x[16]     packing[30]  126
    x[16]     packing[31]  122
    x[16]     packing[32]  84
    x[16]     packing[33]  131
    x[16]     packing[35]  158
    x[16]     packing[37]  62
    x[16]     packing[38]  115
    x[16]     packing[39]  178
    x[16]     packing[40]  38
    x[16]     packing[41]  123
    x[16]     packing[42]  64
    x[16]     packing[44]  60
    x[16]     packing[45]  195
    x[16]     packing[46]  152
    x[16]     packing[48]  73
    x[16]     packing[49]  24
    x[16]     R57       1
    x[17]     OBJ       80
    x[17]     packing[0]  94
    x[17]     packing[1]  70
    x[17]     packing[3]  14
    x[17]     packing[4]  171
    x[17]     packing[5]  59
    x[17]     packing[6]  65
    x[17]     packing[8]  92
    x[17]     packing[9]  93
    x[17]     packing[10]  183
    x[17]     packing[12]  82
    x[17]     packing[13]  110
    x[17]     packing[14]  32
    x[17]     packing[15]  105
    x[17]     packing[17]  95
    x[17]     packing[18]  193
    x[17]     packing[19]  133
    x[17]     packing[20]  144
    x[17]     packing[21]  74
    x[17]     packing[22]  18
    x[17]     packing[23]  42
    x[17]     packing[24]  30
    x[17]     packing[25]  169
    x[17]     packing[26]  128
    x[17]     packing[27]  48
    x[17]     packing[28]  182
    x[17]     packing[30]  183
    x[17]     packing[31]  17
    x[17]     packing[33]  137
    x[17]     packing[35]  2
    x[17]     packing[37]  128
    x[17]     packing[38]  24
    x[17]     packing[41]  33
    x[17]     packing[42]  164
    x[17]     packing[43]  36
    x[17]     packing[48]  159
    x[18]     OBJ       2
    x[18]     packing[0]  76
    x[18]     packing[1]  90
    x[18]     packing[2]  48
    x[18]     packing[4]  182
    x[18]     packing[6]  114
    x[18]     packing[7]  56
    x[18]     packing[8]  199
    x[18]     packing[10]  20
    x[18]     packing[11]  13
    x[18]     packing[13]  81
    x[18]     packing[14]  25
    x[18]     packing[15]  95
    x[18]     packing[17]  84
    x[18]     packing[18]  76
    x[18]     packing[19]  108
    x[18]     packing[20]  110
    x[18]     packing[23]  117
    x[18]     packing[24]  149
    x[18]     packing[26]  77
    x[18]     packing[28]  7
    x[18]     packing[29]  9
    x[18]     packing[30]  144
    x[18]     packing[32]  38
    x[18]     packing[33]  40
    x[18]     packing[34]  108
    x[18]     packing[35]  126
    x[18]     packing[37]  117
    x[18]     packing[38]  117
    x[18]     packing[39]  73
    x[18]     packing[40]  100
    x[18]     packing[42]  50
    x[18]     packing[43]  177
    x[18]     packing[44]  150
    x[18]     packing[45]  131
    x[18]     packing[46]  199
    x[18]     packing[48]  194
    x[18]     packing[49]  99
    x[19]     OBJ       5
    x[19]     packing[0]  25
    x[19]     packing[1]  149
    x[19]     packing[3]  147
    x[19]     packing[4]  99
    x[19]     packing[5]  130
    x[19]     packing[6]  125
    x[19]     packing[8]  189
    x[19]     packing[9]  2
    x[19]     packing[10]  59
    x[19]     packing[11]  91
    x[19]     packing[12]  157
    x[19]     packing[14]  23
    x[19]     packing[16]  143
    x[19]     packing[17]  145
    x[19]     packing[18]  180
    x[19]     packing[19]  193
    x[19]     packing[20]  90
    x[19]     packing[23]  71
    x[19]     packing[24]  143
    x[19]     packing[25]  116
    x[19]     packing[26]  137
    x[19]     packing[27]  17
    x[19]     packing[28]  186
    x[19]     packing[29]  78
    x[19]     packing[30]  36
    x[19]     packing[31]  180
    x[19]     packing[33]  93
    x[19]     packing[34]  72
    x[19]     packing[35]  36
    x[19]     packing[36]  170
    x[19]     packing[39]  82
    x[19]     packing[40]  126
    x[19]     packing[41]  155
    x[19]     packing[42]  135
    x[19]     packing[44]  9
    x[19]     packing[45]  84
    x[19]     packing[46]  109
    x[19]     packing[47]  73
    x[20]     OBJ       83
    x[20]     packing[1]  123
    x[20]     packing[2]  193
    x[20]     packing[4]  142
    x[20]     packing[7]  183
    x[20]     packing[8]  48
    x[20]     packing[11]  57
    x[20]     packing[12]  198
    x[20]     packing[13]  112
    x[20]     packing[15]  146
    x[20]     packing[16]  81
    x[20]     packing[17]  171
    x[20]     packing[18]  52
    x[20]     packing[20]  81
    x[20]     packing[21]  181
    x[20]     packing[22]  3
    x[20]     packing[27]  159
    x[20]     packing[28]  167
    x[20]     packing[29]  32
    x[20]     packing[30]  123
    x[20]     packing[31]  53
    x[20]     packing[32]  11
    x[20]     packing[33]  152
    x[20]     packing[34]  91
    x[20]     packing[37]  22
    x[20]     packing[38]  124
    x[20]     packing[41]  101
    x[20]     packing[43]  98
    x[20]     packing[44]  7
    x[20]     packing[45]  33
    x[20]     packing[47]  143
    x[20]     packing[48]  187
    MARKER    'MARKER'                 'INTEND'
RHS
    RHS1      packing[0]  747
    RHS1      packing[1]  679
    RHS1      packing[2]  870
    RHS1      packing[3]  755
    RHS1      packing[4]  947
    RHS1      packing[5]  731
    RHS1      packing[6]  783
    RHS1      packing[7]  795
    RHS1      packing[8]  395
    RHS1      packing[9]  658
    RHS1      packing[10]  794
    RHS1      packing[11]  684
    RHS1      packing[12]  868
    RHS1      packing[13]  540
    RHS1      packing[14]  695
    RHS1      packing[15]  874
    RHS1      packing[16]  647
    RHS1      packing[17]  896
    RHS1      packing[18]  933
    RHS1      packing[19]  708
    RHS1      packing[20]  681
    RHS1      packing[21]  806
    RHS1      packing[22]  427
    RHS1      packing[23]  506
    RHS1      packing[24]  808
    RHS1      packing[25]  778
    RHS1      packing[26]  640
    RHS1      packing[27]  621
    RHS1      packing[28]  684
    RHS1      packing[29]  278
    RHS1      packing[30]  777
    RHS1      packing[31]  671
    RHS1      packing[32]  491
    RHS1      packing[33]  691
    RHS1      packing[34]  682
    RHS1      packing[35]  509
    RHS1      packing[36]  602
    RHS1      packing[37]  595
    RHS1      packing[38]  1160
    RHS1      packing[39]  676
    RHS1      packing[40]  683
    RHS1      packing[41]  840
    RHS1      packing[42]  777
    RHS1      packing[43]  904
    RHS1      packing[44]  675
    RHS1      packing[45]  393
    RHS1      packing[46]  859
    RHS1      packing[47]  851
    RHS1      packing[48]  849
    RHS1      packing[49]  623
    RHS1      R57       4
BOUNDS
 BV BND1      x[1]    
 BV BND1      x[2]    
 BV BND1      x[3]    
 BV BND1      x[4]    
 BV BND1      x[5]    
 BV BND1      x[6]    
 BV BND1      x[7]    
 BV BND1      x[8]    
 BV BND1      x[9]    
 BV BND1      x[10]   
 BV BND1      x[11]   
 BV BND1      x[12]   
 BV BND1      x[13]   
 BV BND1      x[14]   
 BV BND1      x[15]   
 BV BND1      x[16]   
 BV BND1      x[17]   
 BV BND1      x[18]   
 BV BND1      x[19]   
 BV BND1      x[20]   
ENDATA
